
******************************************************************************
This program contains Ipopt, a library for large-scale nonlinear optimization.
 Ipopt is released as open source code under the Eclipse Public License (EPL).
         For more information visit http://projects.coin-or.org/Ipopt
******************************************************************************

This is Ipopt version 3.12.6, running with linear solver ma57.

Number of nonzeros in equality constraint Jacobian...:        0
Number of nonzeros in inequality constraint Jacobian.:        0
Number of nonzeros in Lagrangian Hessian.............:    34979

Total number of variables............................:     5000
                     variables with only lower bounds:        0
                variables with lower and upper bounds:        0
                     variables with only upper bounds:        0
Total number of equality constraints.................:        0
Total number of inequality constraints...............:        0
        inequality constraints with only lower bounds:        0
   inequality constraints with lower and upper bounds:        0
        inequality constraints with only upper bounds:        0

iter    objective    inf_pr   inf_du lg(mu)  ||d||  lg(rg) alpha_du alpha_pr  ls
   0  1.2490400e+05 0.00e+00 1.00e+02  -1.0 0.00e+00    -  0.00e+00 0.00e+00   0
   1  6.0205840e+04 0.00e+00 9.04e+01  -1.0 4.06e-01   2.0 1.00e+00 1.00e+00f  1
   2  2.7199793e+04 0.00e+00 3.81e+03  -1.0 3.70e+00    -  1.00e+00 1.00e+00f  1
   3  2.6400002e+04 0.00e+00 8.87e+03  -1.0 3.85e+00   2.4 1.00e+00 1.00e+00f  1
   4  2.1284926e+04 0.00e+00 9.59e+03  -1.0 3.79e+00   2.9 1.00e+00 5.00e-01f  2
   5  6.7577935e+03 0.00e+00 5.40e+03  -1.0 2.92e+00    -  1.00e+00 1.00e+00f  1
   6  5.7703702e+03 0.00e+00 4.16e+02  -1.0 2.00e-01   2.4 1.00e+00 1.00e+00f  1
   7  1.4901808e+02 0.00e+00 2.00e+00  -1.0 3.04e-01    -  1.00e+00 1.00e+00f  1
   8  3.2800080e+00 0.00e+00 3.12e-01  -1.0 1.22e-01    -  1.00e+00 1.00e+00f  1
   9  1.2181638e-03 0.00e+00 4.19e-02  -1.7 2.07e-02    -  1.00e+00 1.00e+00f  1
iter    objective    inf_pr   inf_du lg(mu)  ||d||  lg(rg) alpha_du alpha_pr  ls
  10  4.2778704e-10 0.00e+00 2.47e-05  -2.5 9.58e-04    -  1.00e+00 1.00e+00f  1
  11  4.2684870e-21 0.00e+00 6.16e-09  -5.7 3.57e-06    -  1.00e+00 1.00e+00f  1

Number of Iterations....: 11

                                   (scaled)                 (unscaled)
Objective...............:   2.0326128451724483e-21    4.2684869748621416e-21
Dual infeasibility......:   6.1570488235557646e-09    1.2929802529467105e-08
Constraint violation....:   0.0000000000000000e+00    0.0000000000000000e+00
Complementarity.........:   0.0000000000000000e+00    0.0000000000000000e+00
Overall NLP error.......:   6.1570488235557646e-09    1.2929802529467105e-08


Number of objective function evaluations             = 17
Number of objective gradient evaluations             = 12
Number of equality constraint evaluations            = 0
Number of inequality constraint evaluations          = 0
Number of equality constraint Jacobian evaluations   = 0
Number of inequality constraint Jacobian evaluations = 0
Number of Lagrangian Hessian evaluations             = 11
Total CPU secs in IPOPT (w/o function evaluations)   =      0.057
Total CPU secs in NLP function evaluations           =      0.070

EXIT: Optimal Solution Found.
Note: The following floating-point exceptions are signalling: IEEE_UNDERFLOW_FLAG IEEE_DENORMAL

 ** SUBROUTINE CUTEST_csetup: Warning. The problem has no general constraints. 
 ** Other tools may be preferable ** 

************************ CUTEst statistics ************************


 Package used            :  IPOPT
 Problem                 :  BRYBND    
 # variables             =            5000
 # constraints           =               0
 # objective functions   =        0.3000000E+02
 # objective gradients   =        0.1300000E+02
 # objective Hessians    =        0.1200000E+02
 # Hessian-vector prdct  =        0.0000000E+00
 # constraints functions =        0.0000000E+00
 # constraints gradients =        0.0000000E+00
 # constraints Hessians  =        0.0000000E+00
 Exit code               =               0
 Final f                 =   0.4268487E-20
 Set up time             =            0.17 seconds
 Solve time              =            0.22 seconds


******************************************************************

System Time =       0.1080000028 s.
